p cnf 210 316
-106 101 0
-106 102 0
106 -101 -102 0
-107 99 0
-107 100 0
107 -99 -100 0
-108 91 0
-108 92 0
108 -91 -92 0
-109 89 0
-109 90 0
109 -89 -90 0
-110 79 0
-110 80 0
110 -79 -80 0
-111 75 0
-111 76 0
111 -75 -76 0
-112 71 0
-112 72 0
112 -71 -72 0
-113 69 0
-113 70 0
113 -69 -70 0
-114 61 0
-114 62 0
114 -61 -62 0
-115 59 0
-115 60 0
115 -59 -60 0
-116 57 0
-116 58 0
116 -57 -58 0
-117 53 0
-117 54 0
117 -53 -54 0
-118 55 0
-118 56 0
118 -55 -56 0
-119 -117 0
-119 -118 0
119 117 118 0
-120 -116 0
-120 119 0
120 116 -119 0
-121 -115 0
-121 120 0
121 115 -120 0
-122 -114 0
-122 121 0
122 114 -121 0
-123 63 0
-123 64 0
123 -63 -64 0
-124 122 0
-124 -123 0
124 -122 123 0
-125 65 0
-125 66 0
125 -65 -66 0
-126 124 0
-126 -125 0
126 -124 125 0
-127 67 0
-127 68 0
127 -67 -68 0
-128 126 0
-128 -127 0
128 -126 127 0
-129 -113 0
-129 128 0
129 113 -128 0
-130 -112 0
-130 129 0
130 112 -129 0
-131 73 0
-131 74 0
131 -73 -74 0
-132 130 0
-132 -131 0
132 -130 131 0
-133 -111 0
-133 132 0
133 111 -132 0
-134 77 0
-134 78 0
134 -77 -78 0
-135 133 0
-135 -134 0
135 -133 134 0
-136 -110 0
-136 135 0
136 110 -135 0
-137 81 0
-137 82 0
137 -81 -82 0
-138 136 0
-138 -137 0
138 -136 137 0
-139 83 0
-139 84 0
139 -83 -84 0
-140 138 0
-140 -139 0
140 -138 139 0
-141 85 0
-141 86 0
141 -85 -86 0
-142 140 0
-142 -141 0
142 -140 141 0
-143 87 0
-143 88 0
143 -87 -88 0
-144 142 0
-144 -143 0
144 -142 143 0
-145 -109 0
-145 144 0
145 109 -144 0
-146 -108 0
-146 145 0
146 108 -145 0
-147 93 0
-147 94 0
147 -93 -94 0
-148 146 0
-148 -147 0
148 -146 147 0
-149 95 0
-149 96 0
149 -95 -96 0
-150 148 0
-150 -149 0
150 -148 149 0
-151 97 0
-151 98 0
151 -97 -98 0
-152 150 0
-152 -151 0
152 -150 151 0
-153 -107 0
-153 152 0
153 107 -152 0
-154 -106 0
-154 153 0
154 106 -153 0
-155 103 0
-155 104 0
155 -103 -104 0
-156 154 0
-156 -155 0
156 -154 155 0
-157 -105 0
-157 -156 0
157 105 156 0
-158 45 0
-158 46 0
158 -45 -46 0
-159 43 0
-159 44 0
159 -43 -44 0
-160 41 0
-160 42 0
160 -41 -42 0
-161 37 0
-161 38 0
161 -37 -38 0
-162 29 0
-162 30 0
162 -29 -30 0
-163 13 0
-163 14 0
163 -13 -14 0
-164 9 0
-164 10 0
164 -9 -10 0
-165 5 0
-165 6 0
165 -5 -6 0
-166 1 0
-166 2 0
166 -1 -2 0
-167 3 0
-167 4 0
167 -3 -4 0
-168 -166 0
-168 -167 0
168 166 167 0
-169 -165 0
-169 168 0
169 165 -168 0
-170 7 0
-170 8 0
170 -7 -8 0
-171 169 0
-171 -170 0
171 -169 170 0
-172 -164 0
-172 171 0
172 164 -171 0
-173 11 0
-173 12 0
173 -11 -12 0
-174 172 0
-174 -173 0
174 -172 173 0
-175 -163 0
-175 174 0
175 163 -174 0
-176 15 0
-176 16 0
176 -15 -16 0
-177 175 0
-177 -176 0
177 -175 176 0
-178 17 0
-178 18 0
178 -17 -18 0
-179 177 0
-179 -178 0
179 -177 178 0
-180 19 0
-180 20 0
180 -19 -20 0
-181 179 0
-181 -180 0
181 -179 180 0
-182 21 0
-182 22 0
182 -21 -22 0
-183 181 0
-183 -182 0
183 -181 182 0
-184 23 0
-184 24 0
184 -23 -24 0
-185 183 0
-185 -184 0
185 -183 184 0
-186 25 0
-186 26 0
186 -25 -26 0
-187 185 0
-187 -186 0
187 -185 186 0
-188 27 0
-188 28 0
188 -27 -28 0
-189 187 0
-189 -188 0
189 -187 188 0
-190 -162 0
-190 189 0
190 162 -189 0
-191 31 0
-191 32 0
191 -31 -32 0
-192 190 0
-192 -191 0
192 -190 191 0
-193 33 0
-193 34 0
193 -33 -34 0
-194 192 0
-194 -193 0
194 -192 193 0
-195 35 0
-195 36 0
195 -35 -36 0
-196 194 0
-196 -195 0
196 -194 195 0
-197 -161 0
-197 196 0
197 161 -196 0
-198 39 0
-198 40 0
198 -39 -40 0
-199 197 0
-199 -198 0
199 -197 198 0
-200 -160 0
-200 199 0
200 160 -199 0
-201 -159 0
-201 200 0
201 159 -200 0
-202 -158 0
-202 201 0
202 158 -201 0
-203 47 0
-203 48 0
203 -47 -48 0
-204 202 0
-204 -203 0
204 -202 203 0
-205 49 0
-205 50 0
205 -49 -50 0
-206 204 0
-206 -205 0
206 -204 205 0
-207 51 0
-207 52 0
207 -51 -52 0
-208 206 0
-208 -207 0
208 -206 207 0
-209 105 0
-209 -208 0
209 -105 208 0
-210 -157 0
-210 -209 0
210 157 209 0
-210 0
